26
2 31 40 
2 49 22 
2 7 25 
2 10 55 
2 4 34 
2 46 16 
2 58 39 
1 1 
3 52 14 53 
2 19 28 
3 45 18 8 
2 43 47 
3 37 21 29 
3 54 48 57 
3 27 15 60 
3 30 26 42 
2 36 13 
3 3 35 12 
3 6 17 33 
2 2 24 
3 9 5 51 
2 20 38 
3 56 44 59 
1 41 
2 23 11 
2 50 32 
